p cnf 245 2072
1 2 3 4 5 6 7 0
8 9 10 11 12 13 14 0
15 16 17 18 19 20 21 0
22 23 24 25 26 27 28 0
29 30 31 32 33 34 35 0
36 37 38 39 40 41 42 0
43 44 45 46 47 48 49 0
50 51 52 53 54 55 56 0
57 58 59 60 61 62 63 0
64 65 66 67 68 69 70 0
71 72 73 74 75 76 77 0
78 79 80 81 82 83 84 0
85 86 87 88 89 90 91 0
92 93 94 95 96 97 98 0
99 100 101 102 103 104 105 0
106 107 108 109 110 111 112 0
113 114 115 116 117 118 119 0
120 121 122 123 124 125 126 0
127 128 129 130 131 132 133 0
134 135 136 137 138 139 140 0
141 142 143 144 145 146 147 0
148 149 150 151 152 153 154 0
155 156 157 158 159 160 161 0
162 163 164 165 166 167 168 0
169 170 171 172 173 174 175 0
176 177 178 179 180 181 182 0
183 184 185 186 187 188 189 0
190 191 192 193 194 195 196 0
197 198 199 200 201 202 203 0
204 205 206 207 208 209 210 0
211 212 213 214 215 216 217 0
218 219 220 221 222 223 224 0
225 226 227 228 229 230 231 0
232 233 234 235 236 237 238 0
239 240 241 242 243 244 245 0
-1 -8 0
-2 -9 0
-3 -10 0
-4 -11 0
-5 -12 0
-6 -13 0
-7 -14 0
-1 -29 0
-2 -30 0
-3 -31 0
-4 -32 0
-5 -33 0
-6 -34 0
-7 -35 0
-1 -36 0
-2 -37 0
-3 -38 0
-4 -39 0
-5 -40 0
-6 -41 0
-7 -42 0
-1 -57 0
-2 -58 0
-3 -59 0
-4 -60 0
-5 -61 0
-6 -62 0
-7 -63 0
-1 -78 0
-2 -79 0
-3 -80 0
-4 -81 0
-5 -82 0
-6 -83 0
-7 -84 0
-1 -85 0
-2 -86 0
-3 -87 0
-4 -88 0
-5 -89 0
-6 -90 0
-7 -91 0
-1 -99 0
-2 -100 0
-3 -101 0
-4 -102 0
-5 -103 0
-6 -104 0
-7 -105 0
-1 -120 0
-2 -121 0
-3 -122 0
-4 -123 0
-5 -124 0
-6 -125 0
-7 -126 0
-1 -148 0
-2 -149 0
-3 -150 0
-4 -151 0
-5 -152 0
-6 -153 0
-7 -154 0
-1 -155 0
-2 -156 0
-3 -157 0
-4 -158 0
-5 -159 0
-6 -160 0
-7 -161 0
-1 -162 0
-2 -163 0
-3 -164 0
-4 -165 0
-5 -166 0
-6 -167 0
-7 -168 0
-1 -176 0
-2 -177 0
-3 -178 0
-4 -179 0
-5 -180 0
-6 -181 0
-7 -182 0
-1 -197 0
-2 -198 0
-3 -199 0
-4 -200 0
-5 -201 0
-6 -202 0
-7 -203 0
-1 -218 0
-2 -219 0
-3 -220 0
-4 -221 0
-5 -222 0
-6 -223 0
-7 -224 0
-1 -225 0
-2 -226 0
-3 -227 0
-4 -228 0
-5 -229 0
-6 -230 0
-7 -231 0
-1 -232 0
-2 -233 0
-3 -234 0
-4 -235 0
-5 -236 0
-6 -237 0
-7 -238 0
-8 -22 0
-9 -23 0
-10 -24 0
-11 -25 0
-12 -26 0
-13 -27 0
-14 -28 0
-8 -50 0
-9 -51 0
-10 -52 0
-11 -53 0
-12 -54 0
-13 -55 0
-14 -56 0
-8 -57 0
-9 -58 0
-10 -59 0
-11 -60 0
-12 -61 0
-13 -62 0
-14 -63 0
-8 -71 0
-9 -72 0
-10 -73 0
-11 -74 0
-12 -75 0
-13 -76 0
-14 -77 0
-8 -92 0
-9 -93 0
-10 -94 0
-11 -95 0
-12 -96 0
-13 -97 0
-14 -98 0
-8 -99 0
-9 -100 0
-10 -101 0
-11 -102 0
-12 -103 0
-13 -104 0
-14 -105 0
-8 -106 0
-9 -107 0
-10 -108 0
-11 -109 0
-12 -110 0
-13 -111 0
-14 -112 0
-8 -127 0
-9 -128 0
-10 -129 0
-11 -130 0
-12 -131 0
-13 -132 0
-14 -133 0
-8 -141 0
-9 -142 0
-10 -143 0
-11 -144 0
-12 -145 0
-13 -146 0
-14 -147 0
-8 -155 0
-9 -156 0
-10 -157 0
-11 -158 0
-12 -159 0
-13 -160 0
-14 -161 0
-8 -162 0
-9 -163 0
-10 -164 0
-11 -165 0
-12 -166 0
-13 -167 0
-14 -168 0
-8 -183 0
-9 -184 0
-10 -185 0
-11 -186 0
-12 -187 0
-13 -188 0
-14 -189 0
-8 -211 0
-9 -212 0
-10 -213 0
-11 -214 0
-12 -215 0
-13 -216 0
-14 -217 0
-8 -232 0
-9 -233 0
-10 -234 0
-11 -235 0
-12 -236 0
-13 -237 0
-14 -238 0
-8 -239 0
-9 -240 0
-10 -241 0
-11 -242 0
-12 -243 0
-13 -244 0
-14 -245 0
-15 -43 0
-16 -44 0
-17 -45 0
-18 -46 0
-19 -47 0
-20 -48 0
-21 -49 0
-15 -50 0
-16 -51 0
-17 -52 0
-18 -53 0
-19 -54 0
-20 -55 0
-21 -56 0
-15 -57 0
-16 -58 0
-17 -59 0
-18 -60 0
-19 -61 0
-20 -62 0
-21 -63 0
-15 -71 0
-16 -72 0
-17 -73 0
-18 -74 0
-19 -75 0
-20 -76 0
-21 -77 0
-15 -99 0
-16 -100 0
-17 -101 0
-18 -102 0
-19 -103 0
-20 -104 0
-21 -105 0
-15 -127 0
-16 -128 0
-17 -129 0
-18 -130 0
-19 -131 0
-20 -132 0
-21 -133 0
-15 -169 0
-16 -170 0
-17 -171 0
-18 -172 0
-19 -173 0
-20 -174 0
-21 -175 0
-15 -190 0
-16 -191 0
-17 -192 0
-18 -193 0
-19 -194 0
-20 -195 0
-21 -196 0
-15 -197 0
-16 -198 0
-17 -199 0
-18 -200 0
-19 -201 0
-20 -202 0
-21 -203 0
-15 -211 0
-16 -212 0
-17 -213 0
-18 -214 0
-19 -215 0
-20 -216 0
-21 -217 0
-15 -232 0
-16 -233 0
-17 -234 0
-18 -235 0
-19 -236 0
-20 -237 0
-21 -238 0
-15 -239 0
-16 -240 0
-17 -241 0
-18 -242 0
-19 -243 0
-20 -244 0
-21 -245 0
-22 -43 0
-23 -44 0
-24 -45 0
-25 -46 0
-26 -47 0
-27 -48 0
-28 -49 0
-22 -71 0
-23 -72 0
-24 -73 0
-25 -74 0
-26 -75 0
-27 -76 0
-28 -77 0
-22 -78 0
-23 -79 0
-24 -80 0
-25 -81 0
-26 -82 0
-27 -83 0
-28 -84 0
-22 -113 0
-23 -114 0
-24 -115 0
-25 -116 0
-26 -117 0
-27 -118 0
-28 -119 0
-22 -134 0
-23 -135 0
-24 -136 0
-25 -137 0
-26 -138 0
-27 -139 0
-28 -140 0
-22 -162 0
-23 -163 0
-24 -164 0
-25 -165 0
-26 -166 0
-27 -167 0
-28 -168 0
-22 -190 0
-23 -191 0
-24 -192 0
-25 -193 0
-26 -194 0
-27 -195 0
-28 -196 0
-22 -197 0
-23 -198 0
-24 -199 0
-25 -200 0
-26 -201 0
-27 -202 0
-28 -203 0
-29 -36 0
-30 -37 0
-31 -38 0
-32 -39 0
-33 -40 0
-34 -41 0
-35 -42 0
-29 -43 0
-30 -44 0
-31 -45 0
-32 -46 0
-33 -47 0
-34 -48 0
-35 -49 0
-29 -71 0
-30 -72 0
-31 -73 0
-32 -74 0
-33 -75 0
-34 -76 0
-35 -77 0
-29 -78 0
-30 -79 0
-31 -80 0
-32 -81 0
-33 -82 0
-34 -83 0
-35 -84 0
-29 -85 0
-30 -86 0
-31 -87 0
-32 -88 0
-33 -89 0
-34 -90 0
-35 -91 0
-29 -99 0
-30 -100 0
-31 -101 0
-32 -102 0
-33 -103 0
-34 -104 0
-35 -105 0
-29 -113 0
-30 -114 0
-31 -115 0
-32 -116 0
-33 -117 0
-34 -118 0
-35 -119 0
-29 -120 0
-30 -121 0
-31 -122 0
-32 -123 0
-33 -124 0
-34 -125 0
-35 -126 0
-29 -134 0
-30 -135 0
-31 -136 0
-32 -137 0
-33 -138 0
-34 -139 0
-35 -140 0
-29 -155 0
-30 -156 0
-31 -157 0
-32 -158 0
-33 -159 0
-34 -160 0
-35 -161 0
-29 -169 0
-30 -170 0
-31 -171 0
-32 -172 0
-33 -173 0
-34 -174 0
-35 -175 0
-29 -176 0
-30 -177 0
-31 -178 0
-32 -179 0
-33 -180 0
-34 -181 0
-35 -182 0
-29 -204 0
-30 -205 0
-31 -206 0
-32 -207 0
-33 -208 0
-34 -209 0
-35 -210 0
-29 -211 0
-30 -212 0
-31 -213 0
-32 -214 0
-33 -215 0
-34 -216 0
-35 -217 0
-29 -225 0
-30 -226 0
-31 -227 0
-32 -228 0
-33 -229 0
-34 -230 0
-35 -231 0
-29 -232 0
-30 -233 0
-31 -234 0
-32 -235 0
-33 -236 0
-34 -237 0
-35 -238 0
-36 -43 0
-37 -44 0
-38 -45 0
-39 -46 0
-40 -47 0
-41 -48 0
-42 -49 0
-36 -50 0
-37 -51 0
-38 -52 0
-39 -53 0
-40 -54 0
-41 -55 0
-42 -56 0
-36 -57 0
-37 -58 0
-38 -59 0
-39 -60 0
-40 -61 0
-41 -62 0
-42 -63 0
-36 -64 0
-37 -65 0
-38 -66 0
-39 -67 0
-40 -68 0
-41 -69 0
-42 -70 0
-36 -78 0
-37 -79 0
-38 -80 0
-39 -81 0
-40 -82 0
-41 -83 0
-42 -84 0
-36 -85 0
-37 -86 0
-38 -87 0
-39 -88 0
-40 -89 0
-41 -90 0
-42 -91 0
-36 -92 0
-37 -93 0
-38 -94 0
-39 -95 0
-40 -96 0
-41 -97 0
-42 -98 0
-36 -99 0
-37 -100 0
-38 -101 0
-39 -102 0
-40 -103 0
-41 -104 0
-42 -105 0
-36 -106 0
-37 -107 0
-38 -108 0
-39 -109 0
-40 -110 0
-41 -111 0
-42 -112 0
-36 -120 0
-37 -121 0
-38 -122 0
-39 -123 0
-40 -124 0
-41 -125 0
-42 -126 0
-36 -127 0
-37 -128 0
-38 -129 0
-39 -130 0
-40 -131 0
-41 -132 0
-42 -133 0
-36 -134 0
-37 -135 0
-38 -136 0
-39 -137 0
-40 -138 0
-41 -139 0
-42 -140 0
-36 -141 0
-37 -142 0
-38 -143 0
-39 -144 0
-40 -145 0
-41 -146 0
-42 -147 0
-36 -155 0
-37 -156 0
-38 -157 0
-39 -158 0
-40 -159 0
-41 -160 0
-42 -161 0
-36 -162 0
-37 -163 0
-38 -164 0
-39 -165 0
-40 -166 0
-41 -167 0
-42 -168 0
-36 -169 0
-37 -170 0
-38 -171 0
-39 -172 0
-40 -173 0
-41 -174 0
-42 -175 0
-36 -183 0
-37 -184 0
-38 -185 0
-39 -186 0
-40 -187 0
-41 -188 0
-42 -189 0
-36 -197 0
-37 -198 0
-38 -199 0
-39 -200 0
-40 -201 0
-41 -202 0
-42 -203 0
-36 -204 0
-37 -205 0
-38 -206 0
-39 -207 0
-40 -208 0
-41 -209 0
-42 -210 0
-36 -232 0
-37 -233 0
-38 -234 0
-39 -235 0
-40 -236 0
-41 -237 0
-42 -238 0
-43 -57 0
-44 -58 0
-45 -59 0
-46 -60 0
-47 -61 0
-48 -62 0
-49 -63 0
-43 -64 0
-44 -65 0
-45 -66 0
-46 -67 0
-47 -68 0
-48 -69 0
-49 -70 0
-43 -85 0
-44 -86 0
-45 -87 0
-46 -88 0
-47 -89 0
-48 -90 0
-49 -91 0
-43 -92 0
-44 -93 0
-45 -94 0
-46 -95 0
-47 -96 0
-48 -97 0
-49 -98 0
-43 -99 0
-44 -100 0
-45 -101 0
-46 -102 0
-47 -103 0
-48 -104 0
-49 -105 0
-43 -113 0
-44 -114 0
-45 -115 0
-46 -116 0
-47 -117 0
-48 -118 0
-49 -119 0
-43 -148 0
-44 -149 0
-45 -150 0
-46 -151 0
-47 -152 0
-48 -153 0
-49 -154 0
-43 -155 0
-44 -156 0
-45 -157 0
-46 -158 0
-47 -159 0
-48 -160 0
-49 -161 0
-43 -162 0
-44 -163 0
-45 -164 0
-46 -165 0
-47 -166 0
-48 -167 0
-49 -168 0
-43 -169 0
-44 -170 0
-45 -171 0
-46 -172 0
-47 -173 0
-48 -174 0
-49 -175 0
-43 -183 0
-44 -184 0
-45 -185 0
-46 -186 0
-47 -187 0
-48 -188 0
-49 -189 0
-43 -190 0
-44 -191 0
-45 -192 0
-46 -193 0
-47 -194 0
-48 -195 0
-49 -196 0
-43 -197 0
-44 -198 0
-45 -199 0
-46 -200 0
-47 -201 0
-48 -202 0
-49 -203 0
-43 -204 0
-44 -205 0
-45 -206 0
-46 -207 0
-47 -208 0
-48 -209 0
-49 -210 0
-43 -211 0
-44 -212 0
-45 -213 0
-46 -214 0
-47 -215 0
-48 -216 0
-49 -217 0
-43 -218 0
-44 -219 0
-45 -220 0
-46 -221 0
-47 -222 0
-48 -223 0
-49 -224 0
-43 -232 0
-44 -233 0
-45 -234 0
-46 -235 0
-47 -236 0
-48 -237 0
-49 -238 0
-50 -92 0
-51 -93 0
-52 -94 0
-53 -95 0
-54 -96 0
-55 -97 0
-56 -98 0
-50 -106 0
-51 -107 0
-52 -108 0
-53 -109 0
-54 -110 0
-55 -111 0
-56 -112 0
-50 -113 0
-51 -114 0
-52 -115 0
-53 -116 0
-54 -117 0
-55 -118 0
-56 -119 0
-50 -134 0
-51 -135 0
-52 -136 0
-53 -137 0
-54 -138 0
-55 -139 0
-56 -140 0
-50 -176 0
-51 -177 0
-52 -178 0
-53 -179 0
-54 -180 0
-55 -181 0
-56 -182 0
-50 -183 0
-51 -184 0
-52 -185 0
-53 -186 0
-54 -187 0
-55 -188 0
-56 -189 0
-50 -197 0
-51 -198 0
-52 -199 0
-53 -200 0
-54 -201 0
-55 -202 0
-56 -203 0
-50 -211 0
-51 -212 0
-52 -213 0
-53 -214 0
-54 -215 0
-55 -216 0
-56 -217 0
-50 -218 0
-51 -219 0
-52 -220 0
-53 -221 0
-54 -222 0
-55 -223 0
-56 -224 0
-50 -232 0
-51 -233 0
-52 -234 0
-53 -235 0
-54 -236 0
-55 -237 0
-56 -238 0
-57 -64 0
-58 -65 0
-59 -66 0
-60 -67 0
-61 -68 0
-62 -69 0
-63 -70 0
-57 -71 0
-58 -72 0
-59 -73 0
-60 -74 0
-61 -75 0
-62 -76 0
-63 -77 0
-57 -78 0
-58 -79 0
-59 -80 0
-60 -81 0
-61 -82 0
-62 -83 0
-63 -84 0
-57 -85 0
-58 -86 0
-59 -87 0
-60 -88 0
-61 -89 0
-62 -90 0
-63 -91 0
-57 -99 0
-58 -100 0
-59 -101 0
-60 -102 0
-61 -103 0
-62 -104 0
-63 -105 0
-57 -113 0
-58 -114 0
-59 -115 0
-60 -116 0
-61 -117 0
-62 -118 0
-63 -119 0
-57 -120 0
-58 -121 0
-59 -122 0
-60 -123 0
-61 -124 0
-62 -125 0
-63 -126 0
-57 -127 0
-58 -128 0
-59 -129 0
-60 -130 0
-61 -131 0
-62 -132 0
-63 -133 0
-57 -148 0
-58 -149 0
-59 -150 0
-60 -151 0
-61 -152 0
-62 -153 0
-63 -154 0
-57 -155 0
-58 -156 0
-59 -157 0
-60 -158 0
-61 -159 0
-62 -160 0
-63 -161 0
-57 -176 0
-58 -177 0
-59 -178 0
-60 -179 0
-61 -180 0
-62 -181 0
-63 -182 0
-57 -190 0
-58 -191 0
-59 -192 0
-60 -193 0
-61 -194 0
-62 -195 0
-63 -196 0
-57 -197 0
-58 -198 0
-59 -199 0
-60 -200 0
-61 -201 0
-62 -202 0
-63 -203 0
-57 -204 0
-58 -205 0
-59 -206 0
-60 -207 0
-61 -208 0
-62 -209 0
-63 -210 0
-57 -211 0
-58 -212 0
-59 -213 0
-60 -214 0
-61 -215 0
-62 -216 0
-63 -217 0
-57 -218 0
-58 -219 0
-59 -220 0
-60 -221 0
-61 -222 0
-62 -223 0
-63 -224 0
-57 -225 0
-58 -226 0
-59 -227 0
-60 -228 0
-61 -229 0
-62 -230 0
-63 -231 0
-57 -232 0
-58 -233 0
-59 -234 0
-60 -235 0
-61 -236 0
-62 -237 0
-63 -238 0
-64 -71 0
-65 -72 0
-66 -73 0
-67 -74 0
-68 -75 0
-69 -76 0
-70 -77 0
-64 -78 0
-65 -79 0
-66 -80 0
-67 -81 0
-68 -82 0
-69 -83 0
-70 -84 0
-64 -85 0
-65 -86 0
-66 -87 0
-67 -88 0
-68 -89 0
-69 -90 0
-70 -91 0
-64 -92 0
-65 -93 0
-66 -94 0
-67 -95 0
-68 -96 0
-69 -97 0
-70 -98 0
-64 -99 0
-65 -100 0
-66 -101 0
-67 -102 0
-68 -103 0
-69 -104 0
-70 -105 0
-64 -106 0
-65 -107 0
-66 -108 0
-67 -109 0
-68 -110 0
-69 -111 0
-70 -112 0
-64 -113 0
-65 -114 0
-66 -115 0
-67 -116 0
-68 -117 0
-69 -118 0
-70 -119 0
-64 -134 0
-65 -135 0
-66 -136 0
-67 -137 0
-68 -138 0
-69 -139 0
-70 -140 0
-64 -141 0
-65 -142 0
-66 -143 0
-67 -144 0
-68 -145 0
-69 -146 0
-70 -147 0
-64 -148 0
-65 -149 0
-66 -150 0
-67 -151 0
-68 -152 0
-69 -153 0
-70 -154 0
-64 -169 0
-65 -170 0
-66 -171 0
-67 -172 0
-68 -173 0
-69 -174 0
-70 -175 0
-64 -183 0
-65 -184 0
-66 -185 0
-67 -186 0
-68 -187 0
-69 -188 0
-70 -189 0
-64 -197 0
-65 -198 0
-66 -199 0
-67 -200 0
-68 -201 0
-69 -202 0
-70 -203 0
-64 -218 0
-65 -219 0
-66 -220 0
-67 -221 0
-68 -222 0
-69 -223 0
-70 -224 0
-64 -239 0
-65 -240 0
-66 -241 0
-67 -242 0
-68 -243 0
-69 -244 0
-70 -245 0
-71 -127 0
-72 -128 0
-73 -129 0
-74 -130 0
-75 -131 0
-76 -132 0
-77 -133 0
-71 -134 0
-72 -135 0
-73 -136 0
-74 -137 0
-75 -138 0
-76 -139 0
-77 -140 0
-71 -141 0
-72 -142 0
-73 -143 0
-74 -144 0
-75 -145 0
-76 -146 0
-77 -147 0
-71 -148 0
-72 -149 0
-73 -150 0
-74 -151 0
-75 -152 0
-76 -153 0
-77 -154 0
-71 -176 0
-72 -177 0
-73 -178 0
-74 -179 0
-75 -180 0
-76 -181 0
-77 -182 0
-71 -190 0
-72 -191 0
-73 -192 0
-74 -193 0
-75 -194 0
-76 -195 0
-77 -196 0
-71 -197 0
-72 -198 0
-73 -199 0
-74 -200 0
-75 -201 0
-76 -202 0
-77 -203 0
-71 -225 0
-72 -226 0
-73 -227 0
-74 -228 0
-75 -229 0
-76 -230 0
-77 -231 0
-71 -239 0
-72 -240 0
-73 -241 0
-74 -242 0
-75 -243 0
-76 -244 0
-77 -245 0
-78 -99 0
-79 -100 0
-80 -101 0
-81 -102 0
-82 -103 0
-83 -104 0
-84 -105 0
-78 -106 0
-79 -107 0
-80 -108 0
-81 -109 0
-82 -110 0
-83 -111 0
-84 -112 0
-78 -113 0
-79 -114 0
-80 -115 0
-81 -116 0
-82 -117 0
-83 -118 0
-84 -119 0
-78 -127 0
-79 -128 0
-80 -129 0
-81 -130 0
-82 -131 0
-83 -132 0
-84 -133 0
-78 -155 0
-79 -156 0
-80 -157 0
-81 -158 0
-82 -159 0
-83 -160 0
-84 -161 0
-78 -176 0
-79 -177 0
-80 -178 0
-81 -179 0
-82 -180 0
-83 -181 0
-84 -182 0
-78 -190 0
-79 -191 0
-80 -192 0
-81 -193 0
-82 -194 0
-83 -195 0
-84 -196 0
-78 -211 0
-79 -212 0
-80 -213 0
-81 -214 0
-82 -215 0
-83 -216 0
-84 -217 0
-85 -92 0
-86 -93 0
-87 -94 0
-88 -95 0
-89 -96 0
-90 -97 0
-91 -98 0
-85 -127 0
-86 -128 0
-87 -129 0
-88 -130 0
-89 -131 0
-90 -132 0
-91 -133 0
-85 -134 0
-86 -135 0
-87 -136 0
-88 -137 0
-89 -138 0
-90 -139 0
-91 -140 0
-85 -141 0
-86 -142 0
-87 -143 0
-88 -144 0
-89 -145 0
-90 -146 0
-91 -147 0
-85 -155 0
-86 -156 0
-87 -157 0
-88 -158 0
-89 -159 0
-90 -160 0
-91 -161 0
-85 -162 0
-86 -163 0
-87 -164 0
-88 -165 0
-89 -166 0
-90 -167 0
-91 -168 0
-85 -169 0
-86 -170 0
-87 -171 0
-88 -172 0
-89 -173 0
-90 -174 0
-91 -175 0
-85 -176 0
-86 -177 0
-87 -178 0
-88 -179 0
-89 -180 0
-90 -181 0
-91 -182 0
-85 -190 0
-86 -191 0
-87 -192 0
-88 -193 0
-89 -194 0
-90 -195 0
-91 -196 0
-85 -204 0
-86 -205 0
-87 -206 0
-88 -207 0
-89 -208 0
-90 -209 0
-91 -210 0
-85 -218 0
-86 -219 0
-87 -220 0
-88 -221 0
-89 -222 0
-90 -223 0
-91 -224 0
-85 -232 0
-86 -233 0
-87 -234 0
-88 -235 0
-89 -236 0
-90 -237 0
-91 -238 0
-85 -239 0
-86 -240 0
-87 -241 0
-88 -242 0
-89 -243 0
-90 -244 0
-91 -245 0
-92 -106 0
-93 -107 0
-94 -108 0
-95 -109 0
-96 -110 0
-97 -111 0
-98 -112 0
-92 -113 0
-93 -114 0
-94 -115 0
-95 -116 0
-96 -117 0
-97 -118 0
-98 -119 0
-92 -120 0
-93 -121 0
-94 -122 0
-95 -123 0
-96 -124 0
-97 -125 0
-98 -126 0
-92 -148 0
-93 -149 0
-94 -150 0
-95 -151 0
-96 -152 0
-97 -153 0
-98 -154 0
-92 -155 0
-93 -156 0
-94 -157 0
-95 -158 0
-96 -159 0
-97 -160 0
-98 -161 0
-92 -169 0
-93 -170 0
-94 -171 0
-95 -172 0
-96 -173 0
-97 -174 0
-98 -175 0
-92 -190 0
-93 -191 0
-94 -192 0
-95 -193 0
-96 -194 0
-97 -195 0
-98 -196 0
-92 -225 0
-93 -226 0
-94 -227 0
-95 -228 0
-96 -229 0
-97 -230 0
-98 -231 0
-92 -232 0
-93 -233 0
-94 -234 0
-95 -235 0
-96 -236 0
-97 -237 0
-98 -238 0
-99 -106 0
-100 -107 0
-101 -108 0
-102 -109 0
-103 -110 0
-104 -111 0
-105 -112 0
-99 -120 0
-100 -121 0
-101 -122 0
-102 -123 0
-103 -124 0
-104 -125 0
-105 -126 0
-99 -162 0
-100 -163 0
-101 -164 0
-102 -165 0
-103 -166 0
-104 -167 0
-105 -168 0
-99 -169 0
-100 -170 0
-101 -171 0
-102 -172 0
-103 -173 0
-104 -174 0
-105 -175 0
-99 -176 0
-100 -177 0
-101 -178 0
-102 -179 0
-103 -180 0
-104 -181 0
-105 -182 0
-99 -183 0
-100 -184 0
-101 -185 0
-102 -186 0
-103 -187 0
-104 -188 0
-105 -189 0
-99 -204 0
-100 -205 0
-101 -206 0
-102 -207 0
-103 -208 0
-104 -209 0
-105 -210 0
-99 -211 0
-100 -212 0
-101 -213 0
-102 -214 0
-103 -215 0
-104 -216 0
-105 -217 0
-99 -225 0
-100 -226 0
-101 -227 0
-102 -228 0
-103 -229 0
-104 -230 0
-105 -231 0
-99 -239 0
-100 -240 0
-101 -241 0
-102 -242 0
-103 -243 0
-104 -244 0
-105 -245 0
-106 -127 0
-107 -128 0
-108 -129 0
-109 -130 0
-110 -131 0
-111 -132 0
-112 -133 0
-106 -141 0
-107 -142 0
-108 -143 0
-109 -144 0
-110 -145 0
-111 -146 0
-112 -147 0
-106 -148 0
-107 -149 0
-108 -150 0
-109 -151 0
-110 -152 0
-111 -153 0
-112 -154 0
-106 -169 0
-107 -170 0
-108 -171 0
-109 -172 0
-110 -173 0
-111 -174 0
-112 -175 0
-106 -176 0
-107 -177 0
-108 -178 0
-109 -179 0
-110 -180 0
-111 -181 0
-112 -182 0
-106 -225 0
-107 -226 0
-108 -227 0
-109 -228 0
-110 -229 0
-111 -230 0
-112 -231 0
-113 -127 0
-114 -128 0
-115 -129 0
-116 -130 0
-117 -131 0
-118 -132 0
-119 -133 0
-113 -141 0
-114 -142 0
-115 -143 0
-116 -144 0
-117 -145 0
-118 -146 0
-119 -147 0
-113 -155 0
-114 -156 0
-115 -157 0
-116 -158 0
-117 -159 0
-118 -160 0
-119 -161 0
-113 -162 0
-114 -163 0
-115 -164 0
-116 -165 0
-117 -166 0
-118 -167 0
-119 -168 0
-113 -169 0
-114 -170 0
-115 -171 0
-116 -172 0
-117 -173 0
-118 -174 0
-119 -175 0
-113 -190 0
-114 -191 0
-115 -192 0
-116 -193 0
-117 -194 0
-118 -195 0
-119 -196 0
-113 -197 0
-114 -198 0
-115 -199 0
-116 -200 0
-117 -201 0
-118 -202 0
-119 -203 0
-113 -204 0
-114 -205 0
-115 -206 0
-116 -207 0
-117 -208 0
-118 -209 0
-119 -210 0
-113 -211 0
-114 -212 0
-115 -213 0
-116 -214 0
-117 -215 0
-118 -216 0
-119 -217 0
-120 -127 0
-121 -128 0
-122 -129 0
-123 -130 0
-124 -131 0
-125 -132 0
-126 -133 0
-120 -162 0
-121 -163 0
-122 -164 0
-123 -165 0
-124 -166 0
-125 -167 0
-126 -168 0
-120 -169 0
-121 -170 0
-122 -171 0
-123 -172 0
-124 -173 0
-125 -174 0
-126 -175 0
-120 -183 0
-121 -184 0
-122 -185 0
-123 -186 0
-124 -187 0
-125 -188 0
-126 -189 0
-120 -204 0
-121 -205 0
-122 -206 0
-123 -207 0
-124 -208 0
-125 -209 0
-126 -210 0
-120 -218 0
-121 -219 0
-122 -220 0
-123 -221 0
-124 -222 0
-125 -223 0
-126 -224 0
-120 -225 0
-121 -226 0
-122 -227 0
-123 -228 0
-124 -229 0
-125 -230 0
-126 -231 0
-127 -134 0
-128 -135 0
-129 -136 0
-130 -137 0
-131 -138 0
-132 -139 0
-133 -140 0
-127 -148 0
-128 -149 0
-129 -150 0
-130 -151 0
-131 -152 0
-132 -153 0
-133 -154 0
-127 -155 0
-128 -156 0
-129 -157 0
-130 -158 0
-131 -159 0
-132 -160 0
-133 -161 0
-127 -162 0
-128 -163 0
-129 -164 0
-130 -165 0
-131 -166 0
-132 -167 0
-133 -168 0
-127 -176 0
-128 -177 0
-129 -178 0
-130 -179 0
-131 -180 0
-132 -181 0
-133 -182 0
-127 -211 0
-128 -212 0
-129 -213 0
-130 -214 0
-131 -215 0
-132 -216 0
-133 -217 0
-127 -218 0
-128 -219 0
-129 -220 0
-130 -221 0
-131 -222 0
-132 -223 0
-133 -224 0
-134 -162 0
-135 -163 0
-136 -164 0
-137 -165 0
-138 -166 0
-139 -167 0
-140 -168 0
-134 -169 0
-135 -170 0
-136 -171 0
-137 -172 0
-138 -173 0
-139 -174 0
-140 -175 0
-134 -183 0
-135 -184 0
-136 -185 0
-137 -186 0
-138 -187 0
-139 -188 0
-140 -189 0
-134 -197 0
-135 -198 0
-136 -199 0
-137 -200 0
-138 -201 0
-139 -202 0
-140 -203 0
-134 -211 0
-135 -212 0
-136 -213 0
-137 -214 0
-138 -215 0
-139 -216 0
-140 -217 0
-134 -218 0
-135 -219 0
-136 -220 0
-137 -221 0
-138 -222 0
-139 -223 0
-140 -224 0
-134 -225 0
-135 -226 0
-136 -227 0
-137 -228 0
-138 -229 0
-139 -230 0
-140 -231 0
-134 -239 0
-135 -240 0
-136 -241 0
-137 -242 0
-138 -243 0
-139 -244 0
-140 -245 0
-141 -148 0
-142 -149 0
-143 -150 0
-144 -151 0
-145 -152 0
-146 -153 0
-147 -154 0
-141 -155 0
-142 -156 0
-143 -157 0
-144 -158 0
-145 -159 0
-146 -160 0
-147 -161 0
-141 -162 0
-142 -163 0
-143 -164 0
-144 -165 0
-145 -166 0
-146 -167 0
-147 -168 0
-141 -190 0
-142 -191 0
-143 -192 0
-144 -193 0
-145 -194 0
-146 -195 0
-147 -196 0
-141 -197 0
-142 -198 0
-143 -199 0
-144 -200 0
-145 -201 0
-146 -202 0
-147 -203 0
-141 -204 0
-142 -205 0
-143 -206 0
-144 -207 0
-145 -208 0
-146 -209 0
-147 -210 0
-141 -218 0
-142 -219 0
-143 -220 0
-144 -221 0
-145 -222 0
-146 -223 0
-147 -224 0
-141 -225 0
-142 -226 0
-143 -227 0
-144 -228 0
-145 -229 0
-146 -230 0
-147 -231 0
-141 -232 0
-142 -233 0
-143 -234 0
-144 -235 0
-145 -236 0
-146 -237 0
-147 -238 0
-148 -155 0
-149 -156 0
-150 -157 0
-151 -158 0
-152 -159 0
-153 -160 0
-154 -161 0
-148 -162 0
-149 -163 0
-150 -164 0
-151 -165 0
-152 -166 0
-153 -167 0
-154 -168 0
-148 -169 0
-149 -170 0
-150 -171 0
-151 -172 0
-152 -173 0
-153 -174 0
-154 -175 0
-148 -204 0
-149 -205 0
-150 -206 0
-151 -207 0
-152 -208 0
-153 -209 0
-154 -210 0
-148 -218 0
-149 -219 0
-150 -220 0
-151 -221 0
-152 -222 0
-153 -223 0
-154 -224 0
-148 -225 0
-149 -226 0
-150 -227 0
-151 -228 0
-152 -229 0
-153 -230 0
-154 -231 0
-148 -239 0
-149 -240 0
-150 -241 0
-151 -242 0
-152 -243 0
-153 -244 0
-154 -245 0
-155 -162 0
-156 -163 0
-157 -164 0
-158 -165 0
-159 -166 0
-160 -167 0
-161 -168 0
-155 -169 0
-156 -170 0
-157 -171 0
-158 -172 0
-159 -173 0
-160 -174 0
-161 -175 0
-155 -190 0
-156 -191 0
-157 -192 0
-158 -193 0
-159 -194 0
-160 -195 0
-161 -196 0
-155 -197 0
-156 -198 0
-157 -199 0
-158 -200 0
-159 -201 0
-160 -202 0
-161 -203 0
-155 -211 0
-156 -212 0
-157 -213 0
-158 -214 0
-159 -215 0
-160 -216 0
-161 -217 0
-155 -218 0
-156 -219 0
-157 -220 0
-158 -221 0
-159 -222 0
-160 -223 0
-161 -224 0
-155 -232 0
-156 -233 0
-157 -234 0
-158 -235 0
-159 -236 0
-160 -237 0
-161 -238 0
-162 -176 0
-163 -177 0
-164 -178 0
-165 -179 0
-166 -180 0
-167 -181 0
-168 -182 0
-162 -190 0
-163 -191 0
-164 -192 0
-165 -193 0
-166 -194 0
-167 -195 0
-168 -196 0
-162 -197 0
-163 -198 0
-164 -199 0
-165 -200 0
-166 -201 0
-167 -202 0
-168 -203 0
-162 -204 0
-163 -205 0
-164 -206 0
-165 -207 0
-166 -208 0
-167 -209 0
-168 -210 0
-162 -232 0
-163 -233 0
-164 -234 0
-165 -235 0
-166 -236 0
-167 -237 0
-168 -238 0
-162 -239 0
-163 -240 0
-164 -241 0
-165 -242 0
-166 -243 0
-167 -244 0
-168 -245 0
-169 -176 0
-170 -177 0
-171 -178 0
-172 -179 0
-173 -180 0
-174 -181 0
-175 -182 0
-169 -183 0
-170 -184 0
-171 -185 0
-172 -186 0
-173 -187 0
-174 -188 0
-175 -189 0
-169 -197 0
-170 -198 0
-171 -199 0
-172 -200 0
-173 -201 0
-174 -202 0
-175 -203 0
-169 -204 0
-170 -205 0
-171 -206 0
-172 -207 0
-173 -208 0
-174 -209 0
-175 -210 0
-169 -211 0
-170 -212 0
-171 -213 0
-172 -214 0
-173 -215 0
-174 -216 0
-175 -217 0
-169 -218 0
-170 -219 0
-171 -220 0
-172 -221 0
-173 -222 0
-174 -223 0
-175 -224 0
-169 -239 0
-170 -240 0
-171 -241 0
-172 -242 0
-173 -243 0
-174 -244 0
-175 -245 0
-176 -183 0
-177 -184 0
-178 -185 0
-179 -186 0
-180 -187 0
-181 -188 0
-182 -189 0
-176 -190 0
-177 -191 0
-178 -192 0
-179 -193 0
-180 -194 0
-181 -195 0
-182 -196 0
-176 -197 0
-177 -198 0
-178 -199 0
-179 -200 0
-180 -201 0
-181 -202 0
-182 -203 0
-176 -218 0
-177 -219 0
-178 -220 0
-179 -221 0
-180 -222 0
-181 -223 0
-182 -224 0
-176 -225 0
-177 -226 0
-178 -227 0
-179 -228 0
-180 -229 0
-181 -230 0
-182 -231 0
-176 -232 0
-177 -233 0
-178 -234 0
-179 -235 0
-180 -236 0
-181 -237 0
-182 -238 0
-183 -190 0
-184 -191 0
-185 -192 0
-186 -193 0
-187 -194 0
-188 -195 0
-189 -196 0
-183 -204 0
-184 -205 0
-185 -206 0
-186 -207 0
-187 -208 0
-188 -209 0
-189 -210 0
-183 -211 0
-184 -212 0
-185 -213 0
-186 -214 0
-187 -215 0
-188 -216 0
-189 -217 0
-183 -225 0
-184 -226 0
-185 -227 0
-186 -228 0
-187 -229 0
-188 -230 0
-189 -231 0
-183 -239 0
-184 -240 0
-185 -241 0
-186 -242 0
-187 -243 0
-188 -244 0
-189 -245 0
-190 -197 0
-191 -198 0
-192 -199 0
-193 -200 0
-194 -201 0
-195 -202 0
-196 -203 0
-190 -204 0
-191 -205 0
-192 -206 0
-193 -207 0
-194 -208 0
-195 -209 0
-196 -210 0
-197 -218 0
-198 -219 0
-199 -220 0
-200 -221 0
-201 -222 0
-202 -223 0
-203 -224 0
-197 -239 0
-198 -240 0
-199 -241 0
-200 -242 0
-201 -243 0
-202 -244 0
-203 -245 0
-204 -218 0
-205 -219 0
-206 -220 0
-207 -221 0
-208 -222 0
-209 -223 0
-210 -224 0
-204 -225 0
-205 -226 0
-206 -227 0
-207 -228 0
-208 -229 0
-209 -230 0
-210 -231 0
-211 -218 0
-212 -219 0
-213 -220 0
-214 -221 0
-215 -222 0
-216 -223 0
-217 -224 0
-211 -225 0
-212 -226 0
-213 -227 0
-214 -228 0
-215 -229 0
-216 -230 0
-217 -231 0
-218 -225 0
-219 -226 0
-220 -227 0
-221 -228 0
-222 -229 0
-223 -230 0
-224 -231 0
-218 -232 0
-219 -233 0
-220 -234 0
-221 -235 0
-222 -236 0
-223 -237 0
-224 -238 0
-232 -239 0
-233 -240 0
-234 -241 0
-235 -242 0
-236 -243 0
-237 -244 0
-238 -245 0
